09-routing/solutions/XSH-n20-k4-24.opt.sol
Route #1: 1 20 9 18 8 14 4 10
Route #2: 5 13 17
Route #3: 15 19 7 2 6
Route #4: 12 16 3 11
Cost 725
